Route #1: 26 12 40 17 51 6
Route #2: 16 33 1 62 28 61
Route #3: 22 64 42 43 41 56 23 63
Route #4: 49 24 18 55 25 50 44 3
Route #5: 32 9 39 31 10
Route #6: 58 38 11 53 7
Route #7: 8 35 14 59 19 54 13
Route #8: 5 47 36 60 20 37 15 57
Route #9: 2 21 48 30 4
Route #10: 45 29 27 52 34 46
Cost 835